WARNING: for repeatability, setting FPU to use double precision
============================[ Problem Statistics ]=============================
|                                                                             |
|  Number of variables:      15062376                                         |
|  Number of clauses:        60600058                                         |
|  Parse time:                  14.11 s                                       |
|                                                                             |
c ============================[ Search Statistics ]==============================
c | Conflicts |          ORIGINAL         |          LEARNT          | Progress |
c |           |    Vars  Clauses Literals |    Limit  Clauses Lit/Cl |          |
c ===============================================================================
c Switched to VSIDS.
c Switched to LRB.
c Switched to VSIDS.
c Switched to LRB.
c Switched to VSIDS.
c Switched to LRB.
c Switched to VSIDS.
c Switched to LRB.
c Switched to VSIDS.
c Switched to LRB.
c Switched to VSIDS.
c Switched to LRB.
c Switched to VSIDS.
c Switched to LRB.
c Switched to VSIDS.
c Switched to LRB.
c Switched to VSIDS.
c Switched to LRB.
c Switched to VSIDS.
c Switched to LRB.
c Switched to VSIDS.
c Switched to LRB.
c Switched to VSIDS.
c ===============================================================================
restarts                  : 125
conflicts                 : 23591          (7 /sec)
decisions                 : 31701959       (0.00 % random) (9654 /sec)
propagations              : 5811821467     (1769762 /sec)
conflict literals         : 7858128        (7.31 % deleted)

conflicts w/ DIP found    : 18644          (79.03 % of conflicts)
conflicts w/ dangerous DIP: 0              (0.00 % of conflicts)
conflicts w/ DIP-learning : 12             (0.05 % of conflicts)
decisions on ext vars     : 8              (0.00 % of decisions)
total ext vars            : 3           
tried delete ext vars     : 3           
deleted ext vars          : 3           
max ext vars              : 2           

Memory used               : 7265.00 MB
CPU time                  : 3283.96 s
DIP computation time      : 0.427368 s (0.01 % of total time)
ER_sel time               : 0.06258 s
ER_add time               : 0.000176 s
ER_delC time              : 0 s
ER_delV time              : 0.104973 s
ER_sub time               : 0.178293 s
ER_stat time              : 0 s

INDETERMINATE
